145096
46,60,13,25,33,56,22,91,8,96,54,28,29,4,51,64,30,12,87,68,5,76,20,16,89,63,15,19,55,39,45,85,21,61,24,44,71,81,32,1,72,47,84,10,40,66,94,69,36,48,17,95,59,77,93,2,100,104,37,103,53,70,35,38,83,52,6,31,62,50,99,34,74,102,3,14,90,78,42,57,0,86,43,65,58,9,26,27,75,23,101,73,82,79,88,92,11,7,105,97,41,80,18,98,67,49
